(set-logic QF_S)
(set-option :strings-exp true)
(set-option :produce-models true)
(declare-fun sigmaStar_0 () String)
(declare-fun sigmaStar_1 () String)
(declare-fun x_6 () String)
(declare-fun literal_4 () String)
(assert (= literal_4 "\x2f\x2f"))
(assert (or (= x_6 sigmaStar_1) (= x_6 sigmaStar_0) (= x_6 literal_4)))
(assert (str.in.re x_6 (re.++ (re.* re.allchar) (re.++ (str.to.re "\x2f\x65\x76\x69\x6c") (re.* re.allchar)))))
(check-sat)
(get-model)
